coords = array2d(1..41, 1..2, [395, 453, 48, 515, 724, 265, 926, 539, 899, 143,
    228, 253, 787, 511, 295, 551, 714, 484, 317, 808, 142, 162, 273,
    664, 14, 479, 30, 982, 186, 189, 667, 720, 400, 11, 130, 338, 400,
    207, 543, 689, 577, 381, 448, 93, 891, 162, 598, 430, 902, 620,
    788, 775, 130, 115, 441, 474, 803, 105, 211, 933, 750, 747, 879,
    568, 59, 442, 891, 807, 865, 416, 521, 418, 772, 6, 207, 133, 754,
    191, 837, 741, 188, 34]);

n = 41;

